N = 7;
H = 5;
T = 2;

avail = array3d(1..N, 1..H, 1..T, [5, 4, 10, 8, 3, 8, 8, 1, 2, 1, 6, 10, 5, 4, 9, 5, 10, 0, 9, 3, 4, 5, 3, 3, 8, 4, 6, 9, 1, 0, 9, 5, 2, 2, 7, 4, 7, 7, 2, 10, 3, 6, 10, 0, 9, 6, 8, 10, 1, 7, 4, 3, 6, 4, 7, 9, 4, 5, 3, 2, 10, 7, 9, 8, 5, 0, 0, 6, 7, 9]);

r = array2d(1..H, 1..T, [2, 2, 2, 4, 3, 2, 0, 3, 0, 2]);
